500
1000
300
299
299
299
297
297
297
297
297
296
296
296
295
295
294
294
294
293
293
293
292
291
290
290
290
289
288
288
288
288
288
288
287
287
287
287
286
286
286
286
286
285
285
285
285
285
284
284
283
283
283
282
282
281
280
279
279
279
278
278
278
277
277
276
276
276
275
274
274
274
274
273
272
272
271
271
271
271
270
270
270
270
270
270
269
269
269
268
267
267
266
265
265
264
264
264
264
264
264
263
263
263
262
262
262
261
261
261
261
260
260
259
258
256
256
255
255
254
254
254
253
253
253
253
253
252
251
250
250
250
250
250
249
248
245
244
243
243
243
242
241
241
241
241
241
240
240
240
240
240
239
239
239
238
238
237
237
236
236
236
235
235
234
233
232
231
230
230
230
229
229
228
228
228
227
227
227
227
226
226
225
225
225
225
224
224
223
223
223
222
221
221
219
219
219
219
219
218
217
217
217
217
216
216
215
214
214
213
213
213
213
213
212
212
212
212
211
211
211
211
210
210
210
210
209
209
208
207
207
207
206
205
205
205
205
204
204
203
203
202
202
201
201
201
200
199
199
199
198
197
196
196
194
194
194
193
193
193
192
192
192
192
192
191
191
191
190
190
189
189
189
188
188
187
187
187
187
187
186
186
185
185
184
184
184
183
182
182
182
182
182
180
180
180
180
179
179
178
177
177
176
176
175
175
175
174
174
173
173
173
173
173
172
171
171
171
170
170
170
170
170
170
169
169
168
167
167
167
167
166
166
165
165
165
165
164
164
163
163
162
162
162
162
162
161
161
161
160
159
159
159
158
158
157
157
157
156
156
156
155
155
155
154
154
153
153
152
151
151
150
150
150
150
150
150
150
149
149
149
148
148
148
148
147
147
147
147
147
146
146
145
144
144
143
143
143
142
142
142
142
140
140
139
139
139
139
139
138
138
138
137
136
136
136
136
136
136
136
135
135
135
135
134
134
134
133
133
133
132
132
132
132
130
129
129
128
128
128
128
127
127
127
127
126
126
126
125
124
124
124
124
119
118
118
117
117
116
116
116
115
115
115
115
114
114
114
113
113
113
113
113
113
112
111
111
111
110
110
110
110
110
109
109
108
108
108
108
107
106
106
105
105
105
104
104
104
103
103
102
102
